; QF_LIA benchmark: system_15
(set-logic QF_LIA)
(declare-fun v0 () Int)
(declare-fun v1 () Int)
(assert (>= (+ (* 3 v0)) 28))
(assert (<= (+ (* 5 v0) (* -4 v1)) 31))
(assert (>= (+ (* -1 v0) (* 5 v1)) 2))
(assert (<= (+ (* -3 v0) (* -5 v1)) -46))
(assert (>= (+ (* 2 v0) (* -4 v1)) -38))
(assert (<= (+ (* 3 v0) (* -3 v1)) -1))
(assert (= (+ (* 5 v1)) 45))
(assert (= (+ (* 3 v0) (* 1 v1)) 25))
(check-sat)
(exit)
